
Gurobi 9.5.0 (linux64) logging started Tue Nov  7 19:21:12 2023

Set parameter LogFile to value "/lustre1/scratch/348/vsc34888/JointResearch/05.Models/06.Benchmarking/F.Representative_days_based_on_Line_Benefit_NN_OC_fy_1/RTS24_ByStages_nc30/openStarNet_RTS24_ByStages_nc30.log"
Set parameter Method to value 2
Set parameter MIPFocus to value 1
Set parameter Presolve to value 2
Set parameter RINS to value 100
Set parameter MIPGap to value 0.01
Set parameter Threads to value 36
Set parameter TimeLimit to value 604800
Set parameter IterationLimit to value 760000000
Gurobi Optimizer version 9.5.0 build v9.5.0rc5 (linux64)
Thread count: 36 physical cores, 36 logical processors, using up to 36 threads
Optimize a model with 13353 rows, 7689 columns and 36668 nonzeros
Model fingerprint: 0xb50f2528
Variable types: 7650 continuous, 39 integer (39 binary)
Coefficient statistics:
  Matrix range     [4e-03, 3e+03]
  Objective range  [1e+00, 1e+00]
  Bounds range     [4e-04, 3e+00]
  RHS range        [4e-04, 3e+00]
Presolve removed 6513 rows and 3265 columns
Presolve time: 0.05s
Presolved: 6840 rows, 4424 columns, 23795 nonzeros
Variable types: 4385 continuous, 39 integer (39 binary)
Found heuristic solution: objective 159.4121243
Root relaxation presolved: 6840 rows, 4424 columns, 23795 nonzeros

Root barrier log...

Ordering time: 0.00s

Barrier statistics:
 Dense cols : 39
 AA' NZ     : 5.061e+04
 Factor NZ  : 1.701e+05 (roughly 6 MB of memory)
 Factor Ops : 5.354e+06 (less than 1 second per iteration)
 Threads    : 36

                  Objective                Residual
Iter       Primal          Dual         Primal    Dual     Compl     Time
   0   6.35889967e+05 -1.08891979e+08  4.62e+00 8.34e+02  2.30e+04     0s
   1   7.12722051e+04 -3.00303886e+07  4.39e-01 4.56e-09  2.99e+03     0s
   2   2.00455325e+04 -3.37476788e+06  9.89e-03 1.13e-09  2.48e+02     0s
   3   1.53105479e+04 -1.30053052e+05  6.25e-13 8.86e-11  1.04e+01     0s
   4   3.18098888e+03 -2.68330577e+04  5.92e-13 1.52e-11  2.15e+00     0s
   5   1.01840059e+03 -6.80639557e+03  4.20e-13 3.74e-12  5.61e-01     0s
   6   4.37095026e+02 -2.00753212e+03  3.89e-13 3.64e-12  1.75e-01     0s
   7   3.13851226e+02 -6.76217969e+02  3.13e-13 3.64e-12  7.10e-02     0s
   8   1.64258202e+02 -2.17871440e+02  3.05e-13 3.64e-12  2.74e-02     0s
   9   1.33260572e+02 -2.78682433e+01  1.99e-13 3.64e-12  1.16e-02     0s
  10   1.09881945e+02  5.89758541e+01  2.64e-13 3.64e-12  3.65e-03     0s
  11   1.00009770e+02  8.56547141e+01  1.22e-12 3.64e-12  1.03e-03     0s
  12   9.79143401e+01  9.33647198e+01  2.38e-12 3.64e-12  3.26e-04     0s
  13   9.67668604e+01  9.44412940e+01  1.37e-12 3.64e-12  1.67e-04     0s
  14   9.62503126e+01  9.53085585e+01  7.12e-12 3.64e-12  6.75e-05     0s
  15   9.60192879e+01  9.56387496e+01  2.16e-11 3.64e-12  2.73e-05     0s
  16   9.59628972e+01  9.57907226e+01  1.08e-11 3.64e-12  1.23e-05     0s
  17   9.59192632e+01  9.58254188e+01  2.12e-11 3.64e-12  6.73e-06     0s
  18   9.58778795e+01  9.58697617e+01  2.57e-11 3.64e-12  5.82e-07     0s
  19   9.58743017e+01  9.58734170e+01  3.12e-11 1.82e-12  6.34e-08     0s
  20   9.58737309e+01  9.58737150e+01  8.74e-11 1.82e-12  1.13e-09     0s
  21   9.58737279e+01  9.58737279e+01  1.32e-11 7.28e-12  1.13e-12     0s

Barrier solved model in 21 iterations and 0.33 seconds (0.19 work units)
Optimal objective 9.58737279e+01


Root relaxation: objective 9.587373e+01, 535 iterations, 0.25 seconds (0.10 work units)

    Nodes    |    Current Node    |     Objective Bounds      |     Work
 Expl Unexpl |  Obj  Depth IntInf | Incumbent    BestBd   Gap | It/Node Time

     0     0   95.87373    0   11  159.41212   95.87373  39.9%     -    0s
H    0     0                     127.3911644   95.87373  24.7%     -    0s
     0     0   97.64222    0   10  127.39116   97.64222  23.4%     -    0s
H    0     0                     110.6865184   97.64222  11.8%     -    0s
     0     0   98.86126    0   11  110.68652   98.86126  10.7%     -    0s
     0     0   98.88405    0   11  110.68652   98.88405  10.7%     -    0s
     0     0   98.88656    0   11  110.68652   98.88656  10.7%     -    0s
     0     0   98.88682    0   11  110.68652   98.88682  10.7%     -    0s
     0     0   99.02590    0   11  110.68652   99.02590  10.5%     -    1s
     0     0   99.05674    0   11  110.68652   99.05674  10.5%     -    1s
     0     0   99.05963    0   11  110.68652   99.05963  10.5%     -    1s
     0     0   99.06136    0   11  110.68652   99.06136  10.5%     -    1s
     0     0   99.06136    0   11  110.68652   99.06136  10.5%     -    1s
     0     0   99.09150    0   10  110.68652   99.09150  10.5%     -    1s
     0     0   99.10790    0   11  110.68652   99.10790  10.5%     -    1s
     0     0   99.10997    0   10  110.68652   99.10997  10.5%     -    1s
     0     0   99.11004    0   10  110.68652   99.11004  10.5%     -    1s
     0     0   99.11672    0   10  110.68652   99.11672  10.5%     -    1s
     0     2   99.11672    0   10  110.68652   99.11672  10.5%     -    3s
H   12    12                     107.7099989  101.02299  6.21%   209    3s
*   80    37               7     107.3662215  104.18109  2.97%   116    3s
H   93    37                     107.2031572  104.18109  2.82%   108    4s

Cutting planes:
  Gomory: 2
  Implied bound: 11
  MIR: 197
  Relax-and-lift: 2

Explored 219 nodes (18254 simplex iterations) in 4.17 seconds (3.63 work units)
Thread count was 36 (of 36 available processors)

Solution count 6: 107.203 107.366 107.71 ... 159.412

Optimal solution found (tolerance 1.00e-02)
Best objective 1.072031571741e+02, best bound 1.072031571741e+02, gap 0.0000%

Gurobi 9.5.0 (linux64) logging started Tue Nov  7 19:21:17 2023

Set parameter LogFile to value "/lustre1/scratch/348/vsc34888/JointResearch/05.Models/06.Benchmarking/F.Representative_days_based_on_Line_Benefit_NN_OC_fy_1/RTS24_ByStages_nc30/openStarNet_RTS24_ByStages_nc30.log"
Set parameter Method to value 2
Set parameter MIPFocus to value 1
Set parameter Presolve to value 2
Set parameter RINS to value 100
Set parameter MIPGap to value 0.01
Set parameter Threads to value 36
Set parameter TimeLimit to value 604800
Set parameter IterationLimit to value 760000000
No parameters matching 'relax_integrality' found
Gurobi Optimizer version 9.5.0 build v9.5.0rc5 (linux64)
Thread count: 36 physical cores, 36 logical processors, using up to 36 threads
Optimize a model with 13353 rows, 7650 columns and 31949 nonzeros
Model fingerprint: 0x47094a01
Coefficient statistics:
  Matrix range     [4e-03, 3e+03]
  Objective range  [1e+00, 1e+00]
  Bounds range     [4e-04, 3e+00]
  RHS range        [4e-04, 3e+01]
Presolve removed 10597 rows and 3603 columns
Presolve time: 0.01s
Presolved: 2756 rows, 4107 columns, 10099 nonzeros

Ordering time: 0.00s

Barrier statistics:
 AA' NZ     : 6.912e+03
 Factor NZ  : 2.958e+04 (roughly 2 MB of memory)
 Factor Ops : 4.404e+05 (less than 1 second per iteration)
 Threads    : 1

                  Objective                Residual
Iter       Primal          Dual         Primal    Dual     Compl     Time
   0   1.17391114e+06 -6.93236014e+08  3.15e+00 1.84e+03  1.93e+05     0s
   1   1.00223285e+05 -1.03613449e+08  2.43e-01 1.23e-10  1.89e+04     0s
   2   4.33345160e+04 -1.34610299e+07  6.16e-02 1.13e-10  2.24e+03     0s
   3   2.65864990e+04 -1.03984283e+06  1.83e-03 7.62e-11  1.53e+02     0s
   4   1.72384701e+04 -8.34730628e+04  1.15e-12 5.14e-10  1.43e+01     0s
   5   1.07538839e+04 -3.23766341e+04  6.34e-13 2.08e-10  6.13e+00     0s
   6   1.63129759e+03 -7.54839837e+03  7.06e-13 5.18e-11  1.30e+00     0s
   7   6.02253810e+02 -1.85977448e+03  3.88e-13 1.09e-11  3.50e-01     0s
   8   3.48543392e+02 -4.26571011e+02  5.81e-13 2.91e-11  1.10e-01     0s
   9   2.24723848e+02 -1.41804140e+02  4.60e-13 7.28e-12  5.21e-02     0s
  10   1.57145068e+02  5.87429546e+01  1.01e-12 1.46e-11  1.40e-02     0s
  11   1.33745742e+02  8.47314348e+01  8.36e-13 7.28e-12  6.96e-03     0s
  12   1.14818590e+02  9.88055703e+01  1.21e-11 2.91e-11  2.28e-03     0s
  13   1.09573321e+02  1.04785484e+02  8.95e-12 7.28e-12  6.80e-04     0s
  14   1.07851122e+02  1.06716791e+02  2.77e-11 2.91e-11  1.61e-04     0s
  15   1.07205318e+02  1.07170773e+02  5.07e-12 2.91e-11  4.91e-06     0s
  16   1.07203334e+02  1.07199648e+02  1.74e-10 2.91e-11  5.24e-07     0s
  17   1.07203169e+02  1.07203071e+02  1.44e-10 2.91e-11  1.39e-08     0s
  18   1.07203157e+02  1.07203157e+02  3.09e-12 1.46e-11  1.48e-11     0s
  19   1.07203157e+02  1.07203157e+02  3.77e-12 7.28e-12  5.81e-16     0s

Barrier solved model in 19 iterations and 0.05 seconds (0.05 work units)
Optimal objective 1.07203157e+02

Crossover log...

     371 DPushes remaining with DInf 0.0000000e+00                 0s
       0 DPushes remaining with DInf 0.0000000e+00                 0s

     166 PPushes remaining with PInf 0.0000000e+00                 0s
       0 PPushes remaining with PInf 0.0000000e+00                 0s

  Push phase complete: Pinf 0.0000000e+00, Dinf 1.7453818e-12      0s

Iteration    Objective       Primal Inf.    Dual Inf.      Time
     206    1.0720316e+02   0.000000e+00   0.000000e+00      0s

Use crossover to convert LP symmetric solution to basic solution...
Crossover log...

       0 DPushes remaining with DInf 0.0000000e+00                 0s

     105 PPushes remaining with PInf 0.0000000e+00                 0s
       0 PPushes remaining with PInf 0.0000000e+00                 0s

  Push phase complete: Pinf 0.0000000e+00, Dinf 1.3081706e-12      0s

Iteration    Objective       Primal Inf.    Dual Inf.      Time
     318    1.0720316e+02   0.000000e+00   0.000000e+00      0s

Solved in 318 iterations and 0.08 seconds (0.06 work units)
Optimal objective  1.072031572e+02
